SECTION Graph
Nodes 191
Edges 302
E 1 2 5
E 2 3 5
E 3 4 5
E 4 5 5
E 5 6 5
E 6 7 5
E 7 8 5
E 8 9 5
E 9 10 5
E 10 11 5
E 11 12 5
E 12 13 5
E 13 14 5
E 14 15 5
E 15 16 5
E 16 17 5
E 17 18 5
E 18 19 5
E 19 20 5
E 20 21 5
E 21 22 5
E 22 23 5
E 23 24 5
E 24 25 5
E 25 26 5
E 26 27 5
E 1 28 13
E 2 29 13
E 3 30 13
E 5 31 13
E 6 32 13
E 10 33 13
E 11 34 13
E 12 35 13
E 13 36 13
E 14 37 13
E 15 38 13
E 16 39 13
E 17 40 13
E 18 41 13
E 19 42 13
E 20 43 13
E 21 44 13
E 25 45 13
E 26 46 13
E 27 47 13
E 28 29 5
E 29 30 5
E 31 32 5
E 33 34 5
E 34 35 5
E 35 36 5
E 36 37 5
E 37 38 5
E 38 39 5
E 39 40 5
E 40 41 5
E 41 42 5
E 42 43 5
E 43 44 5
E 45 46 5
E 46 47 5
E 28 48 13
E 30 50 13
E 31 51 13
E 32 52 13
E 33 56 13
E 37 57 13
E 38 58 13
E 39 59 13
E 40 60 13
E 42 62 13
E 43 63 13
E 44 64 13
E 45 68 13
E 47 70 13
E 48 49 5
E 49 50 5
E 51 52 5
E 52 53 5
E 53 54 5
E 54 55 5
E 55 56 5
E 57 58 5
E 58 59 5
E 59 60 5
E 60 61 5
E 61 62 5
E 62 63 5
E 63 64 5
E 64 65 5
E 65 66 5
E 66 67 5
E 67 68 5
E 68 69 5
E 69 70 5
E 48 71 13
E 49 72 13
E 50 73 13
E 51 75 13
E 52 76 13
E 53 77 13
E 54 78 13
E 55 79 13
E 56 80 13
E 57 84 13
E 59 86 13
E 60 87 13
E 61 88 13
E 62 89 13
E 64 91 13
E 65 92 13
E 66 93 13
E 67 94 13
E 68 95 13
E 69 96 13
E 70 97 13
E 71 72 5
E 72 73 5
E 73 74 5
E 74 75 5
E 75 76 5
E 76 77 5
E 77 78 5
E 78 79 5
E 79 80 5
E 80 81 5
E 81 82 5
E 82 83 5
E 83 84 5
E 84 85 5
E 85 86 5
E 86 87 5
E 87 88 5
E 88 89 5
E 89 90 5
E 90 91 5
E 91 92 5
E 92 93 5
E 93 94 5
E 94 95 5
E 95 96 5
E 96 97 5
E 71 98 13
E 73 100 13
E 74 101 13
E 75 102 13
E 76 103 13
E 80 104 13
E 81 105 13
E 82 106 13
E 83 107 13
E 84 108 13
E 86 110 13
E 87 111 13
E 91 112 13
E 92 113 13
E 93 114 13
E 94 115 13
E 95 116 13
E 96 117 13
E 97 118 13
E 98 99 5
E 99 100 5
E 100 101 5
E 101 102 5
E 102 103 5
E 104 105 5
E 105 106 5
E 106 107 5
E 107 108 5
E 108 109 5
E 109 110 5
E 110 111 5
E 112 113 5
E 113 114 5
E 114 115 5
E 115 116 5
E 116 117 5
E 117 118 5
E 98 119 13
E 100 121 13
E 101 122 13
E 102 123 13
E 103 124 13
E 104 128 13
E 106 130 13
E 108 131 13
E 109 132 13
E 110 133 13
E 111 134 13
E 112 138 13
E 116 139 13
E 117 140 13
E 118 141 13
E 119 120 5
E 120 121 5
E 121 122 5
E 122 123 5
E 123 124 5
E 124 125 5
E 125 126 5
E 126 127 5
E 127 128 5
E 128 129 5
E 129 130 5
E 131 132 5
E 132 133 5
E 133 134 5
E 134 135 5
E 135 136 5
E 136 137 5
E 137 138 5
E 139 140 5
E 140 141 5
E 119 142 13
E 120 143 13
E 121 144 13
E 123 146 13
E 124 147 13
E 125 148 13
E 126 149 13
E 127 150 13
E 128 151 13
E 129 152 13
E 130 153 13
E 131 154 13
E 132 155 13
E 133 156 13
E 134 157 13
E 135 158 13
E 136 159 13
E 137 160 13
E 138 161 13
E 139 165 13
E 140 166 13
E 141 167 13
E 142 143 5
E 143 144 5
E 144 145 5
E 145 146 5
E 146 147 5
E 147 148 5
E 148 149 5
E 149 150 5
E 150 151 5
E 151 152 5
E 152 153 5
E 154 155 5
E 155 156 5
E 156 157 5
E 157 158 5
E 158 159 5
E 159 160 5
E 160 161 5
E 161 162 5
E 162 163 5
E 163 164 5
E 164 165 5
E 165 166 5
E 166 167 5
E 144 168 13
E 146 170 13
E 147 171 13
E 148 172 13
E 150 174 13
E 151 175 13
E 153 177 13
E 154 179 13
E 155 180 13
E 156 181 13
E 157 182 13
E 159 184 13
E 161 185 13
E 162 186 13
E 163 187 13
E 164 188 13
E 165 189 13
E 166 190 13
E 167 191 13
E 168 169 5
E 169 170 5
E 170 171 5
E 171 172 5
E 172 173 5
E 173 174 5
E 174 175 5
E 175 176 5
E 176 177 5
E 177 178 5
E 178 179 5
E 179 180 5
E 180 181 5
E 181 182 5
E 182 183 5
E 183 184 5
E 185 186 5
E 186 187 5
E 187 188 5
E 188 189 5
E 189 190 5
E 190 191 5
END

SECTION Terminals
Terminals 11
T 1
T 40
T 45
T 84
T 86
T 104
T 144
T 148
T 150
T 151
T 157
END

EOF
